p tdp 43 78
12 28
26 27
4 6
5 8
22 29
3 36
16 21
1 27
17 34
13 42
28 30
11 32
17 40
5 39
4 33
6 18
15 30
9 31
2 23
16 22
9 10
9 11
8 13
1 43
24 41
27 36
14 27
38 41
2 18
7 39
27 38
6 31
13 21
20 30
32 35
17 25
4 37
9 34
12 32
19 25
16 37
19 43
30 37
13 19
15 18
12 33
1 25
16 28
31 34
13 22
2 37
5 7
28 33
1 41
15 43
27 42
37 43
1 14
10 23
12 36
9 39
2 20
3 31
10 37
29 39
1 23
15 31
16 23
21 30
3 7
3 23
24 39
8 28
10 21
4 28
6 40
40 41
2 22
